<instance format="XCSP3" type="COP">
  <variables>
    <array id="emetteurs" note="Définition des variables du problème" size="[50]"> 14 28 42 56 70 84 98 112 126 140 154 168 182 196 210 224 238 252 266 280 294 308 322 336 350 364 378 392 406 420 434 448 462 476 490 504 518 532 546 560 574 588 602 616 630 644 658 672 686 700 714 728 </array>
    <array id="recepteurs" size="[50]" as="emetteurs"/>
    <array id="aux_gb" note="aux_gb[i] is the ith auxiliary variable having been automatically introduced" size="[14]">
      <domain for="aux_gb[0] aux_gb[1]"> 1..6 </domain>
      <domain for="aux_gb[2] aux_gb[3]"> 1..3 </domain>
      <domain for="aux_gb[4..7] aux_gb[10..11]"> 1..10 </domain>
      <domain for="aux_gb[8] aux_gb[9]"> 1..4 </domain>
      <domain for="aux_gb[12] aux_gb[13]"> 1..7 </domain>
    </array>
  </variables>
  <constraints>
    <group note="distance entre fréquence émettrice et réceptrice d'une station">
      <intension> eq(dist(%0,%1),154) </intension>
      <args> emetteurs[0] recepteurs[0] </args>
      <args> emetteurs[1] recepteurs[1] </args>
      <args> emetteurs[2] recepteurs[2] </args>
      <args> emetteurs[3] recepteurs[3] </args>
      <args> emetteurs[4] recepteurs[4] </args>
      <args> emetteurs[5] recepteurs[5] </args>
      <args> emetteurs[6] recepteurs[6] </args>
      <args> emetteurs[7] recepteurs[7] </args>
      <args> emetteurs[8] recepteurs[8] </args>
      <args> emetteurs[9] recepteurs[9] </args>
      <args> emetteurs[10] recepteurs[10] </args>
      <args> emetteurs[11] recepteurs[11] </args>
      <args> emetteurs[12] recepteurs[12] </args>
      <args> emetteurs[13] recepteurs[13] </args>
      <args> emetteurs[14] recepteurs[14] </args>
      <args> emetteurs[15] recepteurs[15] </args>
      <args> emetteurs[16] recepteurs[16] </args>
      <args> emetteurs[17] recepteurs[17] </args>
      <args> emetteurs[18] recepteurs[18] </args>
      <args> emetteurs[19] recepteurs[19] </args>
      <args> emetteurs[20] recepteurs[20] </args>
      <args> emetteurs[21] recepteurs[21] </args>
      <args> emetteurs[22] recepteurs[22] </args>
      <args> emetteurs[23] recepteurs[23] </args>
      <args> emetteurs[24] recepteurs[24] </args>
      <args> emetteurs[25] recepteurs[25] </args>
      <args> emetteurs[26] recepteurs[26] </args>
      <args> emetteurs[27] recepteurs[27] </args>
      <args> emetteurs[28] recepteurs[28] </args>
      <args> emetteurs[29] recepteurs[29] </args>
      <args> emetteurs[30] recepteurs[30] </args>
      <args> emetteurs[31] recepteurs[31] </args>
      <args> emetteurs[32] recepteurs[32] </args>
      <args> emetteurs[33] recepteurs[33] </args>
      <args> emetteurs[34] recepteurs[34] </args>
      <args> emetteurs[35] recepteurs[35] </args>
      <args> emetteurs[36] recepteurs[36] </args>
      <args> emetteurs[37] recepteurs[37] </args>
      <args> emetteurs[38] recepteurs[38] </args>
      <args> emetteurs[39] recepteurs[39] </args>
      <args> emetteurs[40] recepteurs[40] </args>
      <args> emetteurs[41] recepteurs[41] </args>
      <args> emetteurs[42] recepteurs[42] </args>
      <args> emetteurs[43] recepteurs[43] </args>
      <args> emetteurs[44] recepteurs[44] </args>
      <args> emetteurs[45] recepteurs[45] </args>
      <args> emetteurs[46] recepteurs[46] </args>
      <args> emetteurs[47] recepteurs[47] </args>
      <args> emetteurs[48] recepteurs[48] </args>
      <args> emetteurs[49] recepteurs[49] </args>
    </group>
    <group note="distance entre fréquence de station proche">
      <intension> and(ge(dist(%0,%1),%2),ge(dist(%3,%4),%2)) </intension>
      <args> emetteurs[0] emetteurs[21] 50 recepteurs[0] recepteurs[21] </args>
      <args> emetteurs[0] emetteurs[37] 30 recepteurs[0] recepteurs[37] </args>
      <args> emetteurs[0] emetteurs[18] 40 recepteurs[0] recepteurs[18] </args>
      <args> emetteurs[0] emetteurs[3] 30 recepteurs[0] recepteurs[3] </args>
      <args> emetteurs[0] emetteurs[42] 20 recepteurs[0] recepteurs[42] </args>
      <args> emetteurs[1] emetteurs[31] 20 recepteurs[1] recepteurs[31] </args>
      <args> emetteurs[3] emetteurs[25] 40 recepteurs[3] recepteurs[25] </args>
      <args> emetteurs[4] emetteurs[48] 40 recepteurs[4] recepteurs[48] </args>
      <args> emetteurs[6] emetteurs[10] 20 recepteurs[6] recepteurs[10] </args>
      <args> emetteurs[6] emetteurs[21] 40 recepteurs[6] recepteurs[21] </args>
      <args> emetteurs[7] emetteurs[36] 20 recepteurs[7] recepteurs[36] </args>
      <args> emetteurs[7] emetteurs[9] 50 recepteurs[7] recepteurs[9] </args>
      <args> emetteurs[8] emetteurs[37] 40 recepteurs[8] recepteurs[37] </args>
      <args> emetteurs[9] emetteurs[21] 20 recepteurs[9] recepteurs[21] </args>
      <args> emetteurs[9] emetteurs[18] 30 recepteurs[9] recepteurs[18] </args>
      <args> emetteurs[9] emetteurs[30] 40 recepteurs[9] recepteurs[30] </args>
      <args> emetteurs[10] emetteurs[39] 20 recepteurs[10] recepteurs[39] </args>
      <args> emetteurs[10] emetteurs[29] 40 recepteurs[10] recepteurs[29] </args>
      <args> emetteurs[10] emetteurs[40] 50 recepteurs[10] recepteurs[40] </args>
      <args> emetteurs[11] emetteurs[41] 20 recepteurs[11] recepteurs[41] </args>
      <args> emetteurs[11] emetteurs[44] 30 recepteurs[11] recepteurs[44] </args>
      <args> emetteurs[12] emetteurs[42] 40 recepteurs[12] recepteurs[42] </args>
      <args> emetteurs[13] emetteurs[27] 30 recepteurs[13] recepteurs[27] </args>
      <args> emetteurs[13] emetteurs[42] 50 recepteurs[13] recepteurs[42] </args>
      <args> emetteurs[14] emetteurs[35] 20 recepteurs[14] recepteurs[35] </args>
      <args> emetteurs[14] emetteurs[36] 50 recepteurs[14] recepteurs[36] </args>
      <args> emetteurs[14] emetteurs[21] 20 recepteurs[14] recepteurs[21] </args>
      <args> emetteurs[14] emetteurs[40] 50 recepteurs[14] recepteurs[40] </args>
      <args> emetteurs[15] emetteurs[21] 50 recepteurs[15] recepteurs[21] </args>
      <args> emetteurs[16] emetteurs[17] 50 recepteurs[16] recepteurs[17] </args>
      <args> emetteurs[18] emetteurs[21] 20 recepteurs[18] recepteurs[21] </args>
      <args> emetteurs[18] emetteurs[47] 20 recepteurs[18] recepteurs[47] </args>
      <args> emetteurs[19] emetteurs[40] 20 recepteurs[19] recepteurs[40] </args>
      <args> emetteurs[21] emetteurs[32] 50 recepteurs[21] recepteurs[32] </args>
      <args> emetteurs[21] emetteurs[23] 50 recepteurs[21] recepteurs[23] </args>
      <args> emetteurs[22] emetteurs[30] 50 recepteurs[22] recepteurs[30] </args>
      <args> emetteurs[25] emetteurs[33] 30 recepteurs[25] recepteurs[33] </args>
      <args> emetteurs[25] emetteurs[47] 30 recepteurs[25] recepteurs[47] </args>
      <args> emetteurs[26] emetteurs[28] 30 recepteurs[26] recepteurs[28] </args>
      <args> emetteurs[26] emetteurs[41] 50 recepteurs[26] recepteurs[41] </args>
      <args> emetteurs[27] emetteurs[38] 20 recepteurs[27] recepteurs[38] </args>
      <args> emetteurs[28] emetteurs[33] 30 recepteurs[28] recepteurs[33] </args>
      <args> emetteurs[29] emetteurs[39] 50 recepteurs[29] recepteurs[39] </args>
      <args> emetteurs[30] emetteurs[49] 40 recepteurs[30] recepteurs[49] </args>
      <args> emetteurs[31] emetteurs[36] 50 recepteurs[31] recepteurs[36] </args>
      <args> emetteurs[33] emetteurs[34] 40 recepteurs[33] recepteurs[34] </args>
      <args> emetteurs[34] emetteurs[46] 20 recepteurs[34] recepteurs[46] </args>
      <args> emetteurs[35] emetteurs[40] 20 recepteurs[35] recepteurs[40] </args>
      <args> emetteurs[36] emetteurs[45] 40 recepteurs[36] recepteurs[45] </args>
      <args> emetteurs[36] emetteurs[49] 40 recepteurs[36] recepteurs[49] </args>
      <args> emetteurs[37] emetteurs[45] 40 recepteurs[37] recepteurs[45] </args>
      <args> emetteurs[38] emetteurs[43] 30 recepteurs[38] recepteurs[43] </args>
      <args> emetteurs[40] emetteurs[48] 30 recepteurs[40] recepteurs[48] </args>
      <args> emetteurs[41] emetteurs[46] 50 recepteurs[41] recepteurs[46] </args>
      <args> emetteurs[42] emetteurs[44] 30 recepteurs[42] recepteurs[44] </args>
    </group>
    <group note="limiter le nombre de fréquences utilisé par station">
      <intension> le(add(%0,%1),%2) </intension>
      <args> aux_gb[0] aux_gb[1] 11 </args>
      <args> aux_gb[2] aux_gb[3] 4 </args>
      <args> aux_gb[4] aux_gb[5] 19 </args>
      <args> aux_gb[6] aux_gb[7] 19 </args>
      <args> aux_gb[8] aux_gb[9] 8 </args>
      <args> aux_gb[10] aux_gb[11] 18 </args>
      <args> aux_gb[12] aux_gb[13] 14 </args>
    </group>
    <group note="liaisons entre fréquences émettrices et réceptrices">
      <intension> eq(%0,%1) </intension>
      <args> emetteurs[0] recepteurs[38] </args>
      <args> emetteurs[2] recepteurs[35] </args>
      <args> emetteurs[2] recepteurs[15] </args>
      <args> emetteurs[5] recepteurs[10] </args>
      <args> emetteurs[5] recepteurs[37] </args>
      <args> emetteurs[12] recepteurs[46] </args>
      <args> emetteurs[17] recepteurs[40] </args>
      <args> emetteurs[20] recepteurs[24] </args>
      <args> emetteurs[24] recepteurs[36] </args>
      <args> emetteurs[25] recepteurs[27] </args>
      <args> emetteurs[32] recepteurs[36] </args>
    </group>
    <group>
      <intension> eq(%0,%1) </intension>
      <args> emetteurs[38] recepteurs[0] </args>
      <args> emetteurs[35] recepteurs[2] </args>
      <args> emetteurs[15] recepteurs[2] </args>
      <args> emetteurs[10] recepteurs[5] </args>
      <args> emetteurs[37] recepteurs[5] </args>
      <args> emetteurs[46] recepteurs[12] </args>
      <args> emetteurs[40] recepteurs[17] </args>
      <args> emetteurs[24] recepteurs[20] </args>
      <args> emetteurs[36] recepteurs[24] </args>
      <args> emetteurs[27] recepteurs[25] </args>
      <args> emetteurs[36] recepteurs[32] </args>
    </group>
    <group>
      <nValues>
        <list> %... </list>
        <condition> (eq,%0) </condition>
      </nValues>
      <args> aux_gb[0] emetteurs[13] emetteurs[22] emetteurs[27] emetteurs[38] emetteurs[42..43] </args>
      <args> aux_gb[1] recepteurs[13] recepteurs[22] recepteurs[27] recepteurs[38] recepteurs[42..43] </args>
      <args> aux_gb[2] emetteurs[7] emetteurs[21] emetteurs[45] </args>
      <args> aux_gb[3] recepteurs[7] recepteurs[21] recepteurs[45] </args>
      <args> aux_gb[4] emetteurs[0] emetteurs[3] emetteurs[9] emetteurs[18] emetteurs[20] emetteurs[24] emetteurs[30] emetteurs[36] emetteurs[47] emetteurs[49] </args>
      <args> aux_gb[5] recepteurs[0] recepteurs[3] recepteurs[9] recepteurs[18] recepteurs[20] recepteurs[24] recepteurs[30] recepteurs[36] recepteurs[47] recepteurs[49] </args>
      <args> aux_gb[6] emetteurs[5] emetteurs[8] emetteurs[10] emetteurs[16..17] emetteurs[19] emetteurs[29] emetteurs[37] emetteurs[39..40] </args>
      <args> aux_gb[7] recepteurs[5] recepteurs[8] recepteurs[10] recepteurs[16..17] recepteurs[19] recepteurs[29] recepteurs[37] recepteurs[39..40] </args>
      <args> aux_gb[8] emetteurs[1] emetteurs[6] emetteurs[23] emetteurs[31] </args>
      <args> aux_gb[9] recepteurs[1] recepteurs[6] recepteurs[23] recepteurs[31] </args>
      <args> aux_gb[10] emetteurs[11..12] emetteurs[25..26] emetteurs[28] emetteurs[33..34] emetteurs[41] emetteurs[44] emetteurs[46] </args>
      <args> aux_gb[11] recepteurs[11..12] recepteurs[25..26] recepteurs[28] recepteurs[33..34] recepteurs[41] recepteurs[44] recepteurs[46] </args>
      <args> aux_gb[12] emetteurs[2] emetteurs[4] emetteurs[14..15] emetteurs[32] emetteurs[35] emetteurs[48] </args>
      <args> aux_gb[13] recepteurs[2] recepteurs[4] recepteurs[14..15] recepteurs[32] recepteurs[35] recepteurs[48] </args>
    </group>
  </constraints>
  <objectives>
    <minimize type="nValues"> emetteurs[] recepteurs[] </minimize>
  </objectives>
</instance>
